(set-logic QF_UF)
(declare-fun A0 () Bool)
(declare-fun A1 () Bool)
(declare-fun A2 () Bool)
(declare-fun A3 () Bool)
(declare-fun A5 () Bool)
(declare-fun A6 () Bool)
(declare-fun A7 () Bool)
(declare-fun A8 () Bool)
(declare-fun A9 () Bool)
(declare-fun A10 () Bool)
(declare-fun A11 () Bool)
(declare-fun A12 () Bool)
(declare-fun A13 () Bool)
(declare-fun A14 () Bool)
(declare-fun A15 () Bool)
(declare-fun A16 () Bool)
(declare-fun A17 () Bool)
(declare-fun A18 () Bool)
(declare-fun A19 () Bool)
(declare-fun A20 () Bool)
(declare-fun A21 () Bool)
(declare-fun A22 () Bool)
(declare-fun A23 () Bool)
(declare-fun A24 () Bool)
(assert (let ((.def_0 (or A15 A20))) (let ((.def_1 (not A1))) (let ((.def_2 (and .def_1 A11))) (let ((.def_3 (not .def_2))) (let ((.def_4 (or .def_3 .def_0))) (let ((.def_5 (or A8 A12))) (let ((.def_6 (not .def_5))) (let ((.def_7 (not A5))) (let ((.def_8 (and A1 .def_7))) (let ((.def_9 (and .def_8 .def_6))) (let ((.def_10 (not .def_9))) (let ((.def_11 (and .def_10 .def_4))) (let ((.def_12 (not .def_11))) (let ((.def_13 (and A14 A13))) (let ((.def_14 (not .def_13))) (let ((.def_15 (not A12))) (let ((.def_16 (or .def_15 A8))) (let ((.def_17 (or .def_16 .def_14))) (let ((.def_18 (not .def_17))) (let ((.def_19 (or A23 A3))) (let ((.def_20 (not A19))) (let ((.def_21 (= .def_20 .def_1))) (let ((.def_22 (and .def_21 .def_19))) (let ((.def_23 (or .def_22 .def_18))) (let ((.def_24 (not .def_23))) (let ((.def_25 (or .def_24 .def_12))) (let ((.def_26 (not A18))) (let ((.def_27 (and .def_26 A9))) (let ((.def_28 (not .def_27))) (let ((.def_29 (= .def_26 .def_20))) (let ((.def_30 (and .def_29 .def_28))) (let ((.def_31 (not A9))) (let ((.def_32 (or A2 .def_31))) (let ((.def_33 (not A6))) (let ((.def_34 (or A23 .def_33))) (let ((.def_35 (not .def_34))) (let ((.def_36 (and .def_35 .def_32))) (let ((.def_37 (or .def_36 .def_30))) (let ((.def_38 (not .def_37))) (let ((.def_39 (or A21 A11))) (let ((.def_40 (not .def_39))) (let ((.def_41 (or .def_1 A0))) (let ((.def_42 (or .def_41 .def_40))) (let ((.def_43 (not .def_42))) (let ((.def_44 (and .def_20 A0))) (let ((.def_45 (not A24))) (let ((.def_46 (= A13 .def_45))) (let ((.def_47 (and .def_46 .def_44))) (let ((.def_48 (not .def_47))) (let ((.def_49 (or .def_48 .def_43))) (let ((.def_50 (and .def_49 .def_38))) (let ((.def_51 (or .def_50 .def_25))) (let ((.def_52 (not A22))) (let ((.def_53 (and .def_52 A7))) (let ((.def_54 (and A19 A13))) (let ((.def_55 (or .def_54 .def_53))) (let ((.def_56 (not .def_55))) (let ((.def_57 (or A21 A23))) (let ((.def_58 (not .def_57))) (let ((.def_59 (or .def_52 .def_20))) (let ((.def_60 (or .def_59 .def_58))) (let ((.def_61 (and .def_60 .def_56))) (let ((.def_62 (not .def_61))) (let ((.def_63 (and A7 A24))) (let ((.def_64 (not A13))) (let ((.def_65 (or .def_45 .def_64))) (let ((.def_66 (= .def_65 .def_63))) (let ((.def_67 (or A15 A0))) (let ((.def_68 (not .def_67))) (let ((.def_69 (not A2))) (let ((.def_70 (and .def_69 A10))) (let ((.def_71 (not .def_70))) (let ((.def_72 (or .def_71 .def_68))) (let ((.def_73 (not .def_72))) (let ((.def_74 (or .def_73 .def_66))) (let ((.def_75 (= .def_74 .def_62))) (let ((.def_76 (not .def_75))) (let ((.def_77 (not A11))) (let ((.def_78 (not A15))) (let ((.def_79 (and .def_78 .def_77))) (let ((.def_80 (or A6 A0))) (let ((.def_81 (not .def_80))) (let ((.def_82 (= .def_81 .def_79))) (let ((.def_83 (not .def_82))) (let ((.def_84 (or A17 A23))) (let ((.def_85 (not A16))) (let ((.def_86 (or .def_85 .def_1))) (let ((.def_87 (and .def_86 .def_84))) (let ((.def_88 (or .def_87 .def_83))) (let ((.def_89 (and A21 A18))) (let ((.def_90 (not A3))) (let ((.def_91 (or .def_20 .def_90))) (let ((.def_92 (and .def_91 .def_89))) (let ((.def_93 (not A10))) (let ((.def_94 (or A18 .def_93))) (let ((.def_95 (not .def_94))) (let ((.def_96 (or .def_26 A8))) (let ((.def_97 (or .def_96 .def_95))) (let ((.def_98 (or .def_97 .def_92))) (let ((.def_99 (= .def_98 .def_88))) (let ((.def_100 (and .def_99 .def_76))) (let ((.def_101 (and .def_100 .def_51))) .def_101)))))))))))))))))))))))))))))))))))))))))))))))))))))))))))))))))))))))))))))))))))))))))))))))))))))))
(check-sat)
